(set-logic QF_UF)
(declare-fun A1 () Bool)
(declare-fun A2 () Bool)
(declare-fun A3 () Bool)
(declare-fun A4 () Bool)
(declare-fun A5 () Bool)
(declare-fun A6 () Bool)
(declare-fun A7 () Bool)
(declare-fun A8 () Bool)
(declare-fun A9 () Bool)
(declare-fun A10 () Bool)
(declare-fun A11 () Bool)
(declare-fun A13 () Bool)
(declare-fun A14 () Bool)
(declare-fun A15 () Bool)
(declare-fun A16 () Bool)
(declare-fun A17 () Bool)
(declare-fun A18 () Bool)
(declare-fun A19 () Bool)
(declare-fun A20 () Bool)
(declare-fun A21 () Bool)
(declare-fun A22 () Bool)
(declare-fun A23 () Bool)
(declare-fun A24 () Bool)
(assert (let ((.def_0 (not A4))) (let ((.def_1 (not A5))) (let ((.def_2 (or .def_1 .def_0))) (let ((.def_3 (not .def_2))) (let ((.def_4 (not A20))) (let ((.def_5 (not A8))) (let ((.def_6 (or .def_5 .def_4))) (let ((.def_7 (not .def_6))) (let ((.def_8 (and .def_7 .def_3))) (let ((.def_9 (not A21))) (let ((.def_10 (and .def_9 A22))) (let ((.def_11 (and .def_0 A8))) (let ((.def_12 (and .def_11 .def_10))) (let ((.def_13 (and .def_12 .def_8))) (let ((.def_14 (not .def_13))) (let ((.def_15 (or A18 A19))) (let ((.def_16 (not .def_15))) (let ((.def_17 (not A1))) (let ((.def_18 (and .def_17 A24))) (let ((.def_19 (= .def_18 .def_16))) (let ((.def_20 (not .def_19))) (let ((.def_21 (and A17 A19))) (let ((.def_22 (not .def_21))) (let ((.def_23 (or A18 A24))) (let ((.def_24 (not .def_23))) (let ((.def_25 (or .def_24 .def_22))) (let ((.def_26 (and .def_25 .def_20))) (let ((.def_27 (not .def_26))) (let ((.def_28 (and .def_27 .def_14))) (let ((.def_29 (not .def_28))) (let ((.def_30 (not A24))) (let ((.def_31 (not A3))) (let ((.def_32 (or .def_31 .def_30))) (let ((.def_33 (not .def_32))) (let ((.def_34 (or .def_4 A8))) (let ((.def_35 (not .def_34))) (let ((.def_36 (and .def_35 .def_33))) (let ((.def_37 (not A18))) (let ((.def_38 (or .def_0 .def_37))) (let ((.def_39 (not .def_38))) (let ((.def_40 (not A11))) (let ((.def_41 (and .def_17 .def_40))) (let ((.def_42 (not .def_41))) (let ((.def_43 (and .def_42 .def_39))) (let ((.def_44 (not .def_43))) (let ((.def_45 (and .def_44 .def_36))) (let ((.def_46 (or .def_31 .def_4))) (let ((.def_47 (not .def_46))) (let ((.def_48 (and .def_1 A6))) (let ((.def_49 (not .def_48))) (let ((.def_50 (or .def_49 .def_47))) (let ((.def_51 (not .def_50))) (let ((.def_52 (and .def_4 A16))) (let ((.def_53 (not .def_52))) (let ((.def_54 (not A15))) (let ((.def_55 (and .def_54 .def_30))) (let ((.def_56 (or .def_55 .def_53))) (let ((.def_57 (not .def_56))) (let ((.def_58 (and .def_57 .def_51))) (let ((.def_59 (or .def_58 .def_45))) (let ((.def_60 (or .def_59 .def_29))) (let ((.def_61 (not .def_60))) (let ((.def_62 (not A10))) (let ((.def_63 (or A10 .def_62))) (let ((.def_64 (or A23 A1))) (let ((.def_65 (or .def_64 .def_63))) (let ((.def_66 (or A22 .def_9))) (let ((.def_67 (not A19))) (let ((.def_68 (or .def_17 .def_67))) (let ((.def_69 (or .def_68 .def_66))) (let ((.def_70 (and .def_69 .def_65))) (let ((.def_71 (not A2))) (let ((.def_72 (and A6 .def_71))) (let ((.def_73 (and A7 A16))) (let ((.def_74 (or .def_73 .def_72))) (let ((.def_75 (not A13))) (let ((.def_76 (and .def_17 .def_75))) (let ((.def_77 (or A2 .def_37))) (let ((.def_78 (or .def_77 .def_76))) (let ((.def_79 (not .def_78))) (let ((.def_80 (or .def_79 .def_74))) (let ((.def_81 (= .def_80 .def_70))) (let ((.def_82 (not .def_81))) (let ((.def_83 (or .def_31 A10))) (let ((.def_84 (not .def_83))) (let ((.def_85 (or A23 A22))) (let ((.def_86 (and .def_85 .def_84))) (let ((.def_87 (not A6))) (let ((.def_88 (and A14 .def_87))) (let ((.def_89 (and .def_9 A7))) (let ((.def_90 (or .def_89 .def_88))) (let ((.def_91 (not .def_90))) (let ((.def_92 (or .def_91 .def_86))) (let ((.def_93 (not .def_92))) (let ((.def_94 (and A14 A19))) (let ((.def_95 (not A23))) (let ((.def_96 (not A14))) (let ((.def_97 (= .def_96 .def_95))) (let ((.def_98 (not .def_97))) (let ((.def_99 (or .def_98 .def_94))) (let ((.def_100 (= .def_40 A13))) (let ((.def_101 (not .def_100))) (let ((.def_102 (and A9 A4))) (let ((.def_103 (or .def_102 .def_101))) (let ((.def_104 (not .def_103))) (let ((.def_105 (or .def_104 .def_99))) (let ((.def_106 (not .def_105))) (let ((.def_107 (and .def_106 .def_93))) (let ((.def_108 (or .def_107 .def_82))) (let ((.def_109 (and .def_108 .def_61))) .def_109)))))))))))))))))))))))))))))))))))))))))))))))))))))))))))))))))))))))))))))))))))))))))))))))))))))))))))))))
(check-sat)
